solving instance mcf nodes c63 3 6 log
presolving:
(round 1, fast)       708 del vars, 708 del conss, 0 add conss, 30 chg bounds, 0 chg sides, 0 chg coeffs, 0 upgd conss, 0 impls, 0 clqs
(round 2, fast)       1386 del vars, 708 del conss, 0 add conss, 30 chg bounds, 0 chg sides, 0 chg coeffs, 0 upgd conss, 0 impls, 0 clqs
(round 3, fast)       1386 del vars, 708 del conss, 0 add conss, 30 chg bounds, 678 chg sides, 0 chg coeffs, 0 upgd conss, 0 impls, 0 clqs
   (5.4s) symmetry computation started: requiring (bin +, int +, cont +), (fixed: bin -, int -, cont -)
   (6.3s) no symmetry present (symcode time: 0.25)
presolving (4 rounds: 4 fast, 1 medium, 1 exhaustive):
 1386 deleted vars, 708 deleted constraints, 0 added constraints, 30 tightened bounds, 0 added holes, 678 changed sides, 0 changed coefficients
 0 implications, 0 cliques
presolved problem has 271260 variables (0 bin, 0 int, 0 impl, 271260 cont) and 12738 constraints
  12708 constraints of type <linear>
     30 constraints of type <nonlinear>
Presolving Time: 4.98

 time | node  | left  |LP iter|LP it/n|mem/heur|mdpt |vars |cons |rows |cuts |sepa|confs|strbr|  dualbound   | primalbound  |  gap   | compl. 
  737s|     1 |     0 |145035 |     - |  1125M |   0 | 271k|  12k|  12k|   0 |  0 |   0 |   0 | 4.367845e+03 |      --      |    Inf | unknown
L1747s|     1 |     0 |145035 |     - |  subnlp|   0 | 271k|  12k|  12k|   0 |  0 |   0 |   0 | 4.367845e+03 | 8.207443e+03 |  87.91%| unknown
 1748s|     1 |     0 |145035 |     - |  1144M |   0 | 271k|  12k|  12k|   0 |  1 |   0 |   0 | 4.367845e+03 | 8.207443e+03 |  87.91%| unknown
L2314s|     1 |     0 |145035 |     - |  subnlp|   0 | 271k|  12k|  12k|   0 |  2 |   0 |   0 | 4.367845e+03 | 8.206616e+03 |  87.89%| unknown
 2327s|     1 |     0 |145035 |     - |  1151M |   0 | 271k|  12k|  12k|   0 |  2 |   0 |   0 | 4.367845e+03 | 8.206616e+03 |  87.89%| unknown
 2407s|     1 |     0 |164072 |     - |  1172M |   0 | 271k|  12k|  12k|   0 |  3 |   0 |   0 | 7.841160e+03 | 8.206616e+03 |   4.66%| unknown
 2712s|     1 |     0 |249818 |     - |  1172M |   0 | 271k|  12k|  12k|  30 |  4 |   0 |   0 | 8.162487e+03 | 8.206616e+03 |   0.54%| unknown
 2713s|     1 |     0 |249818 |     - |  1172M |   0 | 271k|  12k|  12k|  30 |  5 |   0 |   0 | 8.162487e+03 | 8.206616e+03 |   0.54%| unknown
 2713s|     1 |     0 |249818 |     - |  1172M |   0 | 271k|  12k|  12k|  30 |  6 |   0 |   0 | 8.162487e+03 | 8.206616e+03 |   0.54%| unknown
 2713s|     1 |     0 |249818 |     - |  1172M |   0 | 271k|  12k|  12k|  30 |  7 |   0 |   0 | 8.162487e+03 | 8.206616e+03 |   0.54%| unknown
 2713s|     1 |     2 |249818 |     - |  1172M |   0 | 271k|  12k|  12k|  30 |  8 |   0 |   0 | 8.162487e+03 | 8.206616e+03 |   0.54%| unknown
 3371s|   100 |    55 |276719 | 302.0 |  1264M |  20 | 271k|  12k|  12k| 159 |  1 |   0 |   0 | 8.188169e+03 | 8.206616e+03 |   0.23%|  78.35%
t3390s|   125 |    54 |282104 | 284.5 |  trysol|  22 | 271k|  12k|   0 | 185 |  0 |   0 |   0 | 8.190346e+03 | 8.205863e+03 |   0.19%|  82.82%
 3433s|   200 |    81 |294188 | 238.0 |  1269M |  24 | 271k|  12k|  12k| 283 |  5 |   0 |   0 | 8.192510e+03 | 8.205863e+03 |   0.16%|  87.06%
t3439s|   210 |    71 |294651 | 228.9 |  trysol|  24 | 271k|  12k|   0 | 302 |  0 |   0 |   0 | 8.192510e+03 | 8.205021e+03 |   0.15%|  87.72%
 time | node  | left  |LP iter|LP it/n|mem/heur|mdpt |vars |cons |rows |cuts |sepa|confs|strbr|  dualbound   | primalbound  |  gap   | compl. 
t3444s|   218 |    73 |295505 | 224.4 |  trysol|  25 | 271k|  12k|   0 | 310 |  0 |   0 |   0 | 8.192510e+03 | 8.204693e+03 |   0.15%|  87.83%
t3463s|   245 |    64 |300042 | 218.1 |  trysol|  28 | 271k|  12k|   0 | 342 |  0 |   0 |   0 | 8.194378e+03 | 8.202650e+03 |   0.10%|  90.24%
 3500s|   300 |    71 |308061 | 204.8 |  1281M |  31 | 271k|  12k|  12k| 411 |  2 |   0 |   0 | 8.195530e+03 | 8.202650e+03 |   0.09%|  92.80%
t3522s|   353 |    30 |311099 | 182.6 |  trysol|  36 | 271k|  12k|   0 | 466 |  0 |   0 |   0 | 8.195923e+03 | 8.199588e+03 |   0.04%|  94.56%
 3534s|   400 |    19 |311809 | 162.9 |  1285M |  38 | 271k|  12k|  12k| 498 |  5 |   0 |   0 | 8.197355e+03 | 8.199588e+03 |   0.03%|  98.22%
t3539s|   417 |    13 |311846 | 156.3 |  trysol|  49 | 271k|  12k|   0 | 504 |  0 |   0 |   0 | 8.197355e+03 | 8.199166e+03 |   0.02%|  98.22%
*3541s|   424 |    16 |311898 | 153.8 |    LP  |  49 | 271k|  12k|  12k| 510 |  3 |   0 |   0 | 8.197355e+03 | 8.199164e+03 |   0.02%|  98.22%
*3542s|   427 |    15 |311902 | 152.8 |    LP  |  49 | 271k|  12k|  12k| 513 |  3 |   0 |   0 | 8.197355e+03 | 8.199164e+03 |   0.02%|  98.22%

SCIP Status        : solving was interrupted [gap limit reached]
Solving Time (sec) : 3544.22
Solving Nodes      : 441
Primal Bound       : +8.19916387430987e+03 (11 solutions)
Dual Bound         : +8.19916369383500e+03
Gap                : 0.00 %
primal_bound = 8199.163874309868, dual_bound = 8199.163693835004, gap = 2.201137423658053e-6, time = 3554.44
